(set-info :smt-lib-version 2.6)
(set-logic QF_UFLRA)
(set-info :source |
MathSat group

|)
(set-info :category "random")
(set-info :status sat)
(declare-fun x0 () Real)
(declare-fun x1 () Real)
(declare-fun x2 () Real)
(declare-fun x3 () Real)
(declare-fun x4 () Real)
(declare-fun x5 () Real)
(declare-fun x6 () Real)
(declare-fun x7 () Real)
(declare-fun x8 () Real)
(declare-fun x9 () Real)
(declare-fun x10 () Real)
(declare-fun x11 () Real)
(declare-fun x12 () Real)
(declare-fun x13 () Real)
(declare-fun x14 () Real)
(declare-fun x15 () Real)
(declare-fun x16 () Real)
(declare-fun x17 () Real)
(declare-fun x18 () Real)
(declare-fun x19 () Real)
(declare-fun x20 () Real)
(declare-fun x21 () Real)
(declare-fun x22 () Real)
(declare-fun x23 () Real)
(declare-fun x24 () Real)
(declare-fun x25 () Real)
(declare-fun x26 () Real)
(declare-fun x27 () Real)
(declare-fun x28 () Real)
(declare-fun x29 () Real)
(declare-fun x30 () Real)
(declare-fun x31 () Real)
(declare-fun x32 () Real)
(declare-fun x33 () Real)
(declare-fun x34 () Real)
(declare-fun x35 () Real)
(declare-fun x36 () Real)
(declare-fun x37 () Real)
(declare-fun x38 () Real)
(declare-fun x39 () Real)
(declare-fun f0_1 (Real) Real)
(declare-fun f0_2 (Real Real) Real)
(declare-fun f0_3 (Real Real Real) Real)
(declare-fun f0_4 (Real Real Real Real) Real)
(declare-fun P0 () Bool)
(declare-fun P1 () Bool)
(declare-fun P2 () Bool)
(declare-fun P3 () Bool)
(declare-fun P4 () Bool)
(declare-fun P5 () Bool)
(declare-fun P6 () Bool)
(declare-fun P7 () Bool)
(declare-fun P8 () Bool)
(declare-fun P9 () Bool)
(declare-fun P10 () Bool)
(declare-fun P11 () Bool)
(declare-fun P12 () Bool)
(declare-fun P13 () Bool)
(declare-fun P14 () Bool)
(declare-fun P15 () Bool)
(declare-fun P16 () Bool)
(declare-fun P17 () Bool)
(declare-fun P18 () Bool)
(declare-fun P19 () Bool)
(declare-fun P20 () Bool)
(declare-fun P21 () Bool)
(declare-fun P22 () Bool)
(declare-fun P23 () Bool)
(declare-fun P24 () Bool)
(declare-fun P25 () Bool)
(declare-fun P26 () Bool)
(declare-fun P27 () Bool)
(declare-fun P28 () Bool)
(declare-fun P29 () Bool)
(declare-fun P30 () Bool)
(declare-fun P31 () Bool)
(declare-fun P32 () Bool)
(declare-fun P33 () Bool)
(declare-fun P34 () Bool)
(declare-fun P35 () Bool)
(declare-fun P36 () Bool)
(declare-fun P37 () Bool)
(declare-fun P38 () Bool)
(declare-fun P39 () Bool)
(assert (let ((?v_100 (* 46 x3)) (?v_3 (* 36 x34)) (?v_53 (* 36 x31)) (?v_68 (<= (- (- (* 6 x37) (* 55 x18)) (* 17 x25)) 19))) (let ((?v_118 (< (- (- ?v_100 (* 43 x6)) (* 38 x6)) 11)) (?v_18 (* 24 x28))) (let ((?v_33 (= (- (+ (* 40 x4) (* 11 x37)) ?v_18) 51)) (?v_14 (* 8 x39)) (?v_108 (< (- (+ (* 13 x33) (* 30 x30)) (* 29 x33)) 40)) (?v_124 (<= (- (+ (* 3 x12) (* 16 x19)) (* 47 x6)) 31)) (?v_132 (= (- (- ?v_53 (* 33 x38)) (* 44 x24)) 11)) (?v_162 (f0_1 x4))) (let ((?v_172 (= ?v_162 x28)) (?v_45 (= (f0_2 x8 x30) x22)) (?v_5 (f0_1 x26))) (let ((?v_62 (distinct ?v_5 x16)) (?v_67 (f0_1 x20))) (let ((?v_126 (= x25 ?v_67)) (?v_94 (= (f0_2 x21 x17) ?v_5)) (?v_37 (f0_1 x6))) (let ((?v_60 (distinct (f0_1 x28) ?v_37)) (?v_150 (distinct x23 (f0_1 x30))) (?v_29 (distinct x25 (f0_1 x25))) (?v_107 (distinct x30 ?v_67)) (?v_58 (f0_1 x11))) (let ((?v_72 (distinct ?v_58 (f0_1 x3))) (?v_13 (= (f0_1 x35) (f0_2 x37 x38))) (?v_11 (f0_2 x0 x0)) (?v_36 (f0_1 x18))) (let ((?v_136 (= ?v_11 ?v_36)) (?v_22 (= x24 x7)) (?v_171 (distinct x4 x16)) (?v_86 (distinct x8 ?v_36)) (?v_43 (f0_1 x22))) (let ((?v_200 (= ?v_37 ?v_43)) (?v_98 (= x28 x36)) (?v_187 (distinct x34 (f0_1 x31))) (?v_57 (= (f0_2 x3 x25) x32)) (?v_90 (= x23 ?v_43)) (?v_112 (= x12 (f0_1 x15))) (?v_34 (distinct (f0_1 x8) (f0_1 x37))) (?v_47 (distinct (f0_1 x32) (f0_2 x2 x32))) (?v_40 (distinct x36 x11)) (?v_201 (= x15 (f0_2 x28 x33))) (?v_151 (distinct (f0_2 x12 x10) (f0_2 x24 x25))) (?v_52 (= (f0_1 x10) (f0_2 x14 x18))) (?v_92 (= (f0_1 x21) (f0_1 x14))) (?v_129 (distinct (f0_2 x37 x32) (f0_2 x39 x22))) (?v_130 (= (f0_2 x33 x24) x39)) (?v_138 (distinct ?v_37 x16)) (?v_134 (distinct (f0_2 x39 x7) (f0_1 x27))) (?v_202 (= x4 ?v_162)) (?v_0 (distinct (f0_2 x21 x15) ?v_11)) (?v_12 (distinct (f0_1 x34) (f0_1 x16))) (?v_6 (= x3 x4)) (?v_1 (distinct x19 (f0_1 x24))) (?v_148 (distinct ?v_43 (f0_1 x38))) (?v_80 (distinct x7 x31)) (?v_125 (distinct ?v_58 (f0_1 x36))) (?v_7 (not P25))) (let ((?v_65 (not ?v_47)) (?v_71 (not ?v_0)) (?v_189 (not ?v_6)) (?v_21 (not P26)) (?v_83 (not ?v_92)) (?v_9 (not ?v_148)) (?v_193 (not P37)) (?v_49 (not ?v_98)) (?v_135 (not P22)) (?v_4 (not ?v_1)) (?v_142 (not ?v_40)) (?v_59 (not P0)) (?v_160 (not P16)) (?v_39 (not P13)) (?v_133 (not P17)) (?v_99 (not ?v_60)) (?v_169 (not ?v_34)) (?v_17 (not P18)) (?v_10 (not ?v_62)) (?v_8 (not ?v_12)) (?v_198 (not P11)) (?v_173 (not P12)) (?v_35 (not P27)) (?v_143 (not ?v_124)) (?v_147 (not P14)) (?v_24 (not ?v_136)) (?v_25 (not ?v_13)) (?v_119 (not ?v_129)) (?v_111 (not P31)) (?v_89 (not ?v_33)) (?v_30 (not ?v_201)) (?v_51 (not ?v_171)) (?v_185 (not ?v_130)) (?v_121 (not P4)) (?v_54 (not ?v_22)) (?v_207 (not ?v_132)) (?v_101 (not P28)) (?v_42 (not ?v_29)) (?v_110 (not ?v_107)) (?v_61 (not ?v_86)) (?v_161 (not ?v_118)) (?v_77 (not P19)) (?v_66 (not P1)) (?v_55 (not P20)) (?v_50 (not ?v_200)) (?v_87 (not ?v_45)) (?v_113 (not ?v_125)) (?v_81 (not ?v_57)) (?v_149 (not P9)) (?v_109 (not P6)) (?v_104 (not P10)) (?v_115 (not ?v_126)) (?v_165 (not P5)) (?v_128 (not P34)) (?v_82 (not P2)) (?v_106 (not P29)) (?v_154 (not ?v_134)) (?v_141 (not ?v_80)) (?v_178 (not P38)) (?v_153 (not ?v_90)) (?v_209 (not ?v_108)) (?v_190 (not P8)) (?v_117 (not ?v_112)) (?v_184 (not P7)) (?v_179 (not ?v_72)) (?v_139 (not ?v_187)) (?v_191 (not ?v_172)) (?v_137 (not P33)) (?v_194 (not ?v_138)) (?v_157 (not ?v_52)) (?v_155 (not ?v_68)) (?v_174 (not P3)) (?v_158 (not P32)) (?v_181 (not ?v_151)) (?v_159 (not P36)) (?v_175 (not P23)) (?v_192 (not P35)) (?v_188 (not P30)) (?v_180 (not ?v_150)) (?v_212 (not ?v_94)) (?v_197 (not P24)) (?v_204 (not P21)) (?v_205 (not P39)) (?v_195 (not P15)) (?v_103 (< (+ ?v_3 (* 52 x19)) 29))) (let ((?v_166 (not ?v_103)) (?v_2 (<= (+ (* 2 x30) (* 25 x36) (* 25 x37)) (- 7)))) (let ((?v_46 (not ?v_2)) (?v_28 (distinct (- (+ (* 26 x12) (* 5 x37)) (* 48 x9)) (- 45)))) (let ((?v_164 (not ?v_28)) (?v_48 (distinct (+ (- (* 41 x32) (* 47 x39)) (* 3 x26)) (- 56)))) (let ((?v_26 (not ?v_48)) (?v_41 (< (- (- (* (- 28) x21) (* 44 x23)) (* 2 x9)) (- 54))) (?v_152 (< (+ (* (- 4) x30) (* 52 x16) (* 23 x20)) 34))) (let ((?v_32 (not ?v_152)) (?v_15 (< (+ (- (* (- 2) x31) (* 47 x19)) (* 3 x14)) (- 18))) (?v_70 (<= (- (+ (* (- 34) x17) (* 9 x10)) (* 35 x10)) (- 19))) (?v_84 (< (+ (- (* 31 x25) (* 15 x8)) (* 25 x15)) (- 46))) (?v_114 (< (+ (* (- 6) x5) (* 26 x23)) (- 27)))) (let ((?v_78 (not ?v_114)) (?v_144 (< (+ (* (- 37) x12) (* 51 x16) ?v_18) 36))) (let ((?v_206 (not ?v_144)) (?v_76 (< (+ (- (* 39 x25) (* 48 x14)) ?v_3) (- 51)))) (let ((?v_19 (not ?v_76)) (?v_88 (<= (+ (- (* (- 22) x31) (* 20 x18)) (* 32 x7)) 31))) (let ((?v_75 (not ?v_88))) (let ((?v_203 (or ?v_4 ?v_75)) (?v_127 (< (- (+ (* (- 3) x20) (* 13 x8)) (* 14 x4)) 58)) (?v_64 (<= (- (+ (* (- 7) x37) (* 25 x20)) (* 54 x6)) 8)) (?v_20 (< (- (+ (* (- 26) x26) (* 16 x5)) (* 30 x11)) 25)) (?v_44 (<= (- (+ (* (- 57) x29) (* 5 x21)) ?v_14) (- 8)))) (let ((?v_23 (not ?v_44)) (?v_38 (distinct (- (- (* 45 x2) (* 5 x30)) (* 42 x33)) (- 35))) (?v_146 (< (- (- (* (- 51) x11) (* 12 x33)) 0) 36))) (let ((?v_131 (not ?v_146)) (?v_27 (< (+ (- (* (- 34) x19) (* 17 x34)) (* 46 x5)) (- 8))) (?v_170 (< (+ (- (* 50 x2) (* 17 x32)) ?v_14) (- 6)))) (let ((?v_16 (not ?v_170)) (?v_69 (not ?v_20)) (?v_31 (<= (+ (- (* (- 29) x6) (* 33 x35)) (* 55 x1)) 43))) (let ((?v_96 (not ?v_31)) (?v_73 (< (+ (* (- 2) x34) (* 17 x39) (* 47 x23)) 44))) (let ((?v_122 (not ?v_73)) (?v_186 (not ?v_38)) (?v_156 (not ?v_41)) (?v_145 (<= (- (- (* (- 16) x34) (* 26 x21)) (* 20 x23)) 4))) (let ((?v_210 (not ?v_145)) (?v_140 (distinct (+ (* (- 15) x24) (* 20 x11) (* 17 x1)) 33))) (let ((?v_74 (not ?v_140)) (?v_93 (<= (+ (* (- 34) x30) (* 55 x9) ?v_53) (- 36)))) (let ((?v_177 (not ?v_93)) (?v_56 (= (- (- (* 36 x0) (* 25 x8)) (* 38 x7)) (- 16)))) (let ((?v_63 (not ?v_56)) (?v_120 (= (+ (* 15 x22) (* 17 x38) (* 40 x10)) (- 14))) (?v_79 (distinct (- (- (* (- 39) x12) (* 3 x3)) (* 46 x28)) 58)) (?v_116 (not ?v_70)) (?v_85 (< (- (- (* (- 18) x8) (* 57 x14)) (* 26 x27)) (- 23)))) (let ((?v_183 (not ?v_79)) (?v_97 (not ?v_85)) (?v_102 (distinct (- (* (- 21) x29) (* 46 x17)) 23))) (let ((?v_163 (not ?v_102)) (?v_95 (<= (- (+ (* (- 42) x13) (* 36 x21)) (* 10 x36)) 40))) (let ((?v_105 (not ?v_95)) (?v_91 (not ?v_15)) (?v_167 (<= (+ (- (* 22 x19) ?v_100) (* 11 x2)) (- 56))) (?v_123 (not ?v_120)) (?v_168 (not ?v_27))) (let ((?v_176 (not ?v_167)) (?v_182 (or ?v_70 ?v_124)) (?v_196 (<= (- (- (* (- 19) x22) (* 6 x8)) (* 55 x27)) (- 6))) (?v_208 (not ?v_84)) (?v_211 (not ?v_127))) (let ((?v_199 (not ?v_196))) (and (and (and (and (and (and (and (and (and (and (and (and (and (and (and (and (and (and (and (and (and (and (and (and (and (and (and (and (and (and (and (and (and (and (and (and (and (and (and (and (and (and (and (and (and (and (and (and (and (and (and (and (and (and (and (and (and (and (and (and (and (and (and (and (and (and (and (and (and (and (and (and (and (and (and (and (and (and (and (and (and (and (and (and (and (and (and (and (and (and (and (and (and (and (and (and (and (and (and (and (and (and (and (and (and (and (and (and (and (and (and (and (and (and (and (and (and (and (and (and (and (and (and (and (and (and (and (and (and (and (and (and (and (and (and (and (and (and (and (and (and (and (and (and (and (and (and (and (and (and (and (and (and (and (and (and (and (and (and (and (and (and (and (and (and (and (and (and (and (and (and (and (and (and (and (and (and (and (and (and (and (and (and (and (and (and (and (and (and (and (and (and (and (and (and (and (and (and (and (and (and (and (and (and (and (and (and (and (and (and (and (and (and (and (and (and (and (and (and (and (and (and (and (and (and (and (and (and (and (and (and (and (and (and (and (and (and (and (and (and (and (and (and (and (and (and (and (and (and (and (and (and (and (and (and (and (and (and (and (and (and (and (and (and (and (and (and (and (and (and (and (and (and (and (and (and (and (and (and (and (and (and (and (and (and (and (and (and (and (and (and (and (and (and (and (and (and (and (and (and (and (and (and (and (and (and (and (and (and (and (and (and (and (and (and (and (and (and (and (and (and (and (and (and (and (and (and (and (and (and (and (and (and (and (and (and (and (and (and (and (and (and (and (and (and (and (and (and (and (and (and (and (and (and (and (and (and (and (and (and (and (and (and (and (and (and (and (and (and (and (and (and (and (and (and (and (and (and (and (and (and (and (and (and (and (and (and (and (and (and (and (and (and (and (and (and (and (and (and (and (and (and (and (and (and (and (and (and (and (and (and (and (and (and (and (and (and (and (and (and (and (and (and (and (and (and (and (and (and (and (and (and (and (and (and (and (and (and (and (and (and (and (and (and (and (and (and (and (and (and (and (and (and (and (and (and (and (and (and (and (and (and (and (and (and (and (and (and (and (and (and (and (and (and (and (and (and (and (and (or (or P0 ?v_46) ?v_7) (or (or ?v_65 ?v_71) ?v_189)) (or (or P18 ?v_13) ?v_21)) (or (or ?v_83 P28) ?v_103)) (or (or ?v_164 ?v_9) ?v_26)) (or (or ?v_193 ?v_49) ?v_41)) (or (or ?v_135 ?v_32) ?v_4)) (or (or ?v_0 ?v_15) ?v_142)) (or (or ?v_1 ?v_70) ?v_94)) (or (or ?v_59 ?v_84) ?v_160)) (or (or ?v_78 ?v_39) P27)) (or (or ?v_133 ?v_2) ?v_206)) (or (or ?v_99 ?v_169) ?v_19)) (or ?v_203 ?v_127)) (or (or P18 ?v_17) P19)) (or (or ?v_10 ?v_8) ?v_6)) (or (or ?v_198 P6) P23)) (or (or ?v_173 ?v_7) ?v_8)) (or (or ?v_64 ?v_35) ?v_80)) (or (or ?v_8 ?v_20) ?v_23)) (or (or ?v_112 ?v_9) ?v_143)) (or (or ?v_150 ?v_10) ?v_147)) (or (or ?v_38 ?v_2) ?v_24)) (or (or ?v_12 ?v_25) ?v_131)) (or (or ?v_27 ?v_16) ?v_119)) (or (or P10 ?v_15) ?v_16)) (or (or ?v_111 ?v_17) P38)) (or (or ?v_89 ?v_30) ?v_19)) (or (or ?v_51 ?v_69) ?v_21)) (or (or ?v_185 P30) ?v_121)) (or (or ?v_22 ?v_54) ?v_23)) (or (or ?v_24 ?v_25) ?v_207)) (or (or ?v_26 ?v_27) ?v_29)) (or (or ?v_101 P30) ?v_45)) (or (or P5 P24) ?v_28)) (or (or ?v_96 ?v_42) ?v_30)) (or (or ?v_68 ?v_19) ?v_31)) (or (or ?v_32 P2) P7)) (or (or P1 P18) ?v_122)) (or (or ?v_33 ?v_34) ?v_110)) (or (or ?v_35 ?v_61) ?v_138)) (or (or ?v_186 ?v_39) ?v_40)) (or (or ?v_161 ?v_156) ?v_39)) (or (or ?v_52 ?v_77) ?v_210)) (or (or ?v_74 ?v_66) ?v_55)) (or (or ?v_42 ?v_50) ?v_44)) (or (or ?v_45 ?v_46) ?v_47)) (or (or ?v_48 ?v_87) P6)) (or (or ?v_2 ?v_49) ?v_33)) (or (or ?v_50 ?v_51) ?v_113)) (or (or ?v_52 ?v_57) ?v_42)) (or (or ?v_23 ?v_177) ?v_34)) (or (or ?v_54 P8) ?v_55)) (or (or ?v_63 ?v_56) ?v_81)) (or (or P2 ?v_149) ?v_120)) (or (or ?v_39 P37) ?v_79)) (or (or P33 ?v_44) P24)) (or (or ?v_109 ?v_41) ?v_6)) (or (or ?v_72 ?v_54) ?v_59)) (or (or ?v_60 ?v_13) ?v_61)) (or (or ?v_62 P37) ?v_63)) (or (or ?v_151 ?v_104) ?v_64)) (or (or ?v_65 ?v_66) P2)) (or (or ?v_115 ?v_68) ?v_69)) (or (or ?v_165 ?v_128) ?v_82)) (or (or ?v_116 ?v_32) ?v_71)) (or (or ?v_106 ?v_72) ?v_85)) (or (or ?v_73 ?v_42) ?v_16)) (or (or ?v_74 P14) ?v_41)) (or (or ?v_154 ?v_75) P30)) (or (or ?v_76 P30) ?v_77)) (or (or ?v_78 ?v_24) P9)) (or (or ?v_183 P15) ?v_42)) (or (or ?v_141 ?v_81) ?v_63)) (or (or P12 ?v_178) ?v_82)) (or (or P6 ?v_83) P16)) (or (or ?v_84 ?v_24) ?v_30)) (or (or ?v_90 ?v_20) P26)) (or (or ?v_97 ?v_86) ?v_87)) (or (or P21 P7) ?v_6)) (or (or ?v_59 ?v_163) ?v_88)) (or (or ?v_32 ?v_105) ?v_89)) (or (or P15 ?v_91) P2)) (or (or ?v_90 P23) ?v_25)) (or (or ?v_68 ?v_29) ?v_91)) (or (or ?v_92 ?v_35) P36)) (or (or ?v_153 ?v_93) ?v_94)) (or (or ?v_86 ?v_95) ?v_96)) (or (or ?v_84 ?v_97) P6)) (or (or ?v_98 ?v_8) ?v_99)) (or (or ?v_167 P25) ?v_101)) (or (or ?v_102 ?v_55) ?v_56)) (or (or ?v_103 ?v_49) ?v_108)) (or (or ?v_104 P26) ?v_105)) (or (or ?v_0 ?v_106) ?v_76)) (or (or P8 ?v_40) ?v_74)) (or (or ?v_13 ?v_61) ?v_107)) (or (or ?v_209 ?v_109) ?v_190)) (or (or P21 ?v_109) ?v_60)) (or (or P26 ?v_110) ?v_38)) (or (or ?v_57 ?v_111) ?v_52)) (or (or ?v_117 ?v_184) ?v_52)) (or (or ?v_35 ?v_103) ?v_113)) (or (or ?v_85 ?v_74) ?v_114)) (or (or ?v_80 ?v_179) ?v_115)) (or (or ?v_106 ?v_96) ?v_111)) (or (or ?v_81 ?v_116) ?v_35)) (or (or ?v_64 ?v_117) ?v_118)) (or (or ?v_119 ?v_12) ?v_91)) (or (or ?v_98 ?v_91) ?v_139)) (or (or ?v_74 ?v_120) ?v_13)) (or (or P12 P5) ?v_2)) (or (or ?v_74 ?v_121) ?v_123)) (or (or ?v_78 ?v_93) ?v_25)) (or (or P5 ?v_52) P39)) (or (or ?v_21 ?v_168) P22)) (or (or ?v_15 ?v_122) ?v_78)) (or (or ?v_123 ?v_68) P19)) (or (or ?v_124 ?v_102) ?v_191)) (or (or P38 ?v_114) P37)) (or (or P20 P29) P32)) (or (or ?v_137 P22) ?v_125)) (or (or ?v_59 ?v_126) ?v_20)) (or (or ?v_12 ?v_0) ?v_112)) (or (or ?v_127 ?v_41) ?v_128)) (or (or ?v_71 ?v_22) ?v_129)) (or (or ?v_130 ?v_131) ?v_132)) (or (or ?v_15 ?v_94) ?v_25)) (or (or ?v_133 ?v_134) ?v_135)) (or (or ?v_82 ?v_93) ?v_105)) (or (or ?v_136 ?v_137) ?v_194)) (or (or ?v_32 P13) ?v_137)) (or (or ?v_139 ?v_46) ?v_106)) (or (or P17 ?v_140) ?v_136)) (or (or ?v_157 P1) P4)) (or (or ?v_141 ?v_142) ?v_133)) (or (or ?v_88 ?v_103) ?v_1)) (or (or ?v_143 ?v_131) ?v_21)) (or (or P13 P39) ?v_155)) (or (or P24 P2) ?v_49)) (or (or ?v_68 P39) ?v_144)) (or (or ?v_145 P27) ?v_130)) (or (or ?v_38 ?v_146) ?v_147)) (or (or ?v_148 ?v_174) ?v_102)) (or (or ?v_116 ?v_134) ?v_149)) (or (or ?v_126 ?v_64) ?v_73)) (or (or ?v_6 ?v_78) ?v_82)) (or (or ?v_128 ?v_144) ?v_95)) (or (or ?v_150 ?v_127) ?v_158)) (or (or ?v_181 P33) ?v_10)) (or (or ?v_146 ?v_130) ?v_75)) (or (or P39 ?v_94) ?v_23)) (or (or ?v_152 ?v_96) ?v_129)) (or (or ?v_42 P8) P22)) (or (or P17 ?v_68) ?v_159)) (or (or ?v_98 P26) P5)) (or (or P2 P7) ?v_120)) (or (or ?v_142 P25) P35)) (or (or ?v_153 ?v_42) ?v_113)) (or (or ?v_90 ?v_150) P38)) (or (or ?v_20 ?v_66) P37)) (or (or ?v_154 P2) ?v_72)) (or (or ?v_153 ?v_155) P18)) (or (or P31 ?v_121) ?v_56)) (or (or ?v_15 ?v_175) P3)) (or (or ?v_156 P23) ?v_157)) (or (or ?v_158 P5) ?v_71)) (or (or ?v_108 P12) P9)) (or (or ?v_166 P30) ?v_51)) (or (or ?v_26 ?v_111) ?v_143)) (or (or ?v_34 ?v_31) ?v_41)) (or (or ?v_70 ?v_70) ?v_139)) (or (or P14 ?v_159) ?v_10)) (or (or ?v_115 P23) ?v_160)) (or (or ?v_161 ?v_202) ?v_32)) (or (or ?v_163 ?v_10) ?v_27)) (or (or ?v_115 ?v_154) ?v_117)) (or (or ?v_113 ?v_164) ?v_165)) (or (or ?v_146 ?v_8) ?v_166)) (or (or ?v_176 ?v_160) ?v_92)) (or (or ?v_55 ?v_108) ?v_30)) (or (or ?v_168 ?v_97) P15)) (or (or ?v_26 P22) ?v_169)) (or (or ?v_20 ?v_68) ?v_143)) (or (or ?v_83 ?v_120) ?v_170)) (or (or ?v_135 ?v_133) ?v_44)) (or (or ?v_133 ?v_165) ?v_34)) (or (or ?v_171 P33) ?v_76)) (or (or ?v_172 P4) ?v_142)) (or (or ?v_62 P21) ?v_113)) (or (or ?v_52 P25) ?v_30)) (or (or ?v_108 ?v_84) ?v_59)) (or (or ?v_33 ?v_137) ?v_125)) (or (or ?v_44 ?v_132) ?v_55)) (or (or ?v_75 ?v_125) P22)) (or (or ?v_38 P6) ?v_85)) (or (or ?v_12 P18) ?v_50)) (or (or ?v_31 ?v_17) ?v_173)) (or (or ?v_59 ?v_83) ?v_158)) (or (or ?v_174 ?v_140) P37)) (or (or P12 ?v_121) ?v_192)) (or (or ?v_23 ?v_65) ?v_175)) (or (or ?v_102 ?v_84) ?v_107)) (or (or ?v_64 ?v_140) ?v_136)) (or (or ?v_56 ?v_176) ?v_2)) (or (or ?v_188 ?v_93) ?v_155)) (or (or ?v_12 ?v_112) ?v_127)) (or ?v_182 ?v_147)) (or (or ?v_148 ?v_156) ?v_52)) (or (or ?v_177 ?v_166) ?v_66)) (or (or ?v_19 ?v_178) ?v_180)) (or (or ?v_51 P7) ?v_30)) (or (or ?v_104 ?v_136) P25)) (or (or ?v_64 ?v_129) ?v_144)) (or (or ?v_81 ?v_56) ?v_55)) (or (or ?v_2 ?v_48) ?v_4)) (or (or ?v_212 ?v_179) ?v_23)) (or (or ?v_176 ?v_40) ?v_197)) (or (or ?v_59 ?v_77) ?v_8)) (or (or ?v_180 ?v_51) ?v_181)) (or (or ?v_8 ?v_12) ?v_75)) (or (or ?v_20 ?v_98) ?v_2)) (or (or ?v_152 P32) ?v_123)) (or ?v_182 ?v_131)) (or (or ?v_159 ?v_94) ?v_183)) (or (or ?v_140 ?v_29) ?v_104)) (or (or ?v_85 ?v_115) ?v_183)) (or (or ?v_138 ?v_158) ?v_75)) (or (or ?v_168 ?v_92) ?v_131)) (or (or ?v_45 ?v_157) ?v_126)) (or (or ?v_121 ?v_74) ?v_122)) (or (or ?v_48 ?v_184) ?v_17)) (or (or ?v_163 ?v_106) ?v_40)) (or (or ?v_107 ?v_196) ?v_172)) (or (or ?v_1 ?v_185) P12)) (or (or P0 ?v_91) ?v_66)) (or (or ?v_181 ?v_34) P30)) (or (or ?v_71 ?v_151) ?v_177)) (or (or ?v_147 ?v_186) ?v_112)) (or (or ?v_131 P33) ?v_62)) (or (or P14 ?v_13) ?v_187)) (or (or ?v_30 ?v_0) ?v_60)) (or (or ?v_66 ?v_30) ?v_40)) (or (or ?v_48 ?v_188) ?v_56)) (or (or ?v_24 ?v_48) ?v_189)) (or (or ?v_77 ?v_204) ?v_1)) (or (or ?v_166 ?v_35) ?v_46)) (or (or ?v_40 ?v_46) ?v_125)) (or (or ?v_122 ?v_123) ?v_42)) (or (or ?v_171 ?v_121) ?v_90)) (or (or ?v_101 ?v_73) P38)) (or (or P15 ?v_15) ?v_32)) (or (or P15 ?v_190) ?v_144)) (or (or ?v_170 ?v_39) ?v_59)) (or (or P22 ?v_160) ?v_94)) (or (or ?v_0 ?v_149) ?v_109)) (or (or P38 ?v_167) P18)) (or (or ?v_102 ?v_115) ?v_52)) (or (or ?v_42 ?v_78) ?v_108)) (or (or ?v_187 ?v_106) ?v_50)) (or (or ?v_157 ?v_76) ?v_205)) (or (or ?v_113 ?v_116) ?v_165)) (or (or ?v_132 ?v_75) ?v_172)) (or (or ?v_76 ?v_72) ?v_191)) (or (or ?v_144 ?v_48) P18)) (or (or ?v_184 ?v_192) ?v_111)) (or (or ?v_62 ?v_154) ?v_57)) (or (or P20 ?v_171) P26)) (or (or ?v_68 P5) ?v_163)) (or (or ?v_187 ?v_149) ?v_88)) (or (or ?v_57 ?v_152) P21)) (or (or P26 ?v_34) ?v_81)) (or (or P5 ?v_158) ?v_63)) (or (or ?v_7 ?v_102) P6)) (or (or ?v_82 ?v_115) ?v_78)) (or (or ?v_61 ?v_158) ?v_10)) (or (or ?v_112 ?v_133) ?v_52)) (or (or ?v_152 ?v_149) ?v_51)) (or (or ?v_81 ?v_73) ?v_130)) (or (or ?v_25 P11) P19)) (or (or ?v_160 ?v_148) ?v_0)) (or (or ?v_7 ?v_71) ?v_51)) (or (or P3 ?v_26) ?v_42)) (or (or ?v_116 ?v_174) ?v_145)) (or (or ?v_108 ?v_185) ?v_125)) (or (or P12 P2) ?v_2)) (or (or ?v_40 ?v_148) ?v_12)) (or (or ?v_140 P30) P24)) (or (or P37 ?v_111) ?v_123)) (or (or ?v_166 ?v_47) ?v_208)) (or (or ?v_127 ?v_20) P18)) (or (or ?v_173 ?v_126) ?v_211)) (or (or P26 ?v_174) ?v_147)) (or (or P11 ?v_192) ?v_117)) (or (or ?v_169 ?v_10) P35)) (or (or ?v_148 P26) ?v_125)) (or (or ?v_82 P25) P24)) (or (or ?v_183 ?v_7) ?v_171)) (or (or ?v_193 ?v_97) ?v_19)) (or (or ?v_74 ?v_95) ?v_183)) (or (or ?v_29 ?v_155) ?v_38)) (or (or ?v_90 P3) ?v_113)) (or (or ?v_175 ?v_46) ?v_149)) (or (or ?v_141 ?v_147) ?v_193)) (or (or ?v_195 ?v_194) ?v_190)) (or (or ?v_2 ?v_101) ?v_130)) (or (or ?v_22 ?v_89) ?v_115)) (or (or P28 ?v_98) ?v_195)) (or (or ?v_57 ?v_65) ?v_59)) (or (or P29 ?v_155) ?v_196)) (or (or ?v_33 ?v_4) ?v_189)) (or (or ?v_57 ?v_177) ?v_64)) (or (or P13 ?v_197) ?v_183)) (or (or ?v_198 ?v_44) ?v_199)) (or (or ?v_21 ?v_49) P10)) (or (or ?v_159 P27) ?v_144)) (or (or ?v_123 ?v_57) ?v_151)) (or (or ?v_82 ?v_54) ?v_130)) (or (or ?v_168 ?v_160) ?v_6)) (or (or P6 P38) P12)) (or (or ?v_187 ?v_66) ?v_180)) (or (or ?v_69 ?v_90) ?v_45)) (or (or ?v_99 P14) P38)) (or (or ?v_123 ?v_71) ?v_112)) (or (or ?v_97 P1) ?v_56)) (or (or ?v_136 ?v_199) ?v_19)) (or (or ?v_200 ?v_74) ?v_70)) (or (or ?v_81 ?v_66) ?v_196)) (or (or P3 ?v_169) ?v_146)) (or (or P16 ?v_4) ?v_133)) (or (or ?v_42 ?v_115) ?v_33)) (or (or P18 ?v_116) ?v_24)) (or (or P32 ?v_8) P19)) (or (or ?v_188 ?v_7) ?v_183)) (or (or ?v_163 ?v_103) ?v_123)) (or (or ?v_138 ?v_114) ?v_121)) (or (or ?v_186 ?v_81) ?v_169)) (or (or ?v_121 ?v_61) ?v_133)) (or (or ?v_96 ?v_0) ?v_10)) (or (or ?v_171 P20) ?v_126)) (or (or ?v_175 ?v_95) ?v_189)) (or (or ?v_20 ?v_186) ?v_201)) (or (or P17 ?v_163) P26)) (or (or ?v_114 ?v_27) ?v_180)) (or (or ?v_15 P9) ?v_164)) (or (or ?v_23 ?v_120) ?v_149)) (or (or ?v_179 ?v_151) ?v_165)) (or (or ?v_61 ?v_168) ?v_4)) (or (or ?v_65 P19) ?v_180)) (or (or ?v_47 (not ?v_202)) ?v_127)) (or (or P37 ?v_118) ?v_66)) (or (or ?v_7 P3) ?v_72)) (or (or ?v_52 P12) ?v_72)) (or ?v_203 ?v_38)) (or (or ?v_74 ?v_74) ?v_204)) (or (or P15 ?v_55) ?v_179)) (or (or ?v_157 ?v_30) ?v_90)) (or (or ?v_89 ?v_205) P12)) (or (or P3 P34) ?v_70)) (or (or ?v_151 ?v_114) ?v_131)) (or (or ?v_121 ?v_52) ?v_65)) (or (or ?v_206 ?v_92) ?v_59)) (or (or ?v_20 P35) ?v_17)) (or (or P33 ?v_12) ?v_121)) (or (or ?v_123 P10) P20)) (or (or P10 ?v_202) ?v_39)) (or (or ?v_156 ?v_183) P7)) (or (or ?v_25 P25) ?v_177)) (or (or ?v_10 ?v_114) ?v_146)) (or (or ?v_161 ?v_127) ?v_72)) (or (or P0 ?v_103) ?v_171)) (or (or ?v_110 ?v_77) ?v_97)) (or (or ?v_62 ?v_205) ?v_16)) (or (or ?v_13 ?v_81) ?v_153)) (or (or ?v_6 ?v_207) ?v_19)) (or (or P29 ?v_94) ?v_178)) (or (or ?v_204 ?v_69) P34)) (or (or ?v_208 ?v_35) ?v_139)) (or (or ?v_189 ?v_30) ?v_158)) (or (or ?v_98 P11) ?v_209)) (or (or P0 ?v_25) ?v_84)) (or (or P14 ?v_151) ?v_38)) (or (or ?v_21 ?v_30) P20)) (or (or ?v_151 ?v_165) ?v_70)) (or (or ?v_35 ?v_131) ?v_199)) (or (or ?v_134 P37) P16)) (or (or ?v_81 ?v_179) ?v_47)) (or (or P31 ?v_69) ?v_201)) (or (or ?v_198 P21) ?v_60)) (or (or ?v_9 P20) ?v_104)) (or (or ?v_104 ?v_129) ?v_210)) (or (or ?v_161 ?v_176) ?v_91)) (or (or ?v_132 ?v_23) ?v_138)) (or (or ?v_44 ?v_90) ?v_85)) (or (or ?v_200 P18) ?v_6)) (or (or ?v_75 ?v_60) ?v_89)) (or (or ?v_164 ?v_177) ?v_206)) (or (or ?v_7 P25) P39)) (or (or ?v_47 ?v_48) ?v_9)) (or (or ?v_119 ?v_190) ?v_153)) (or (or ?v_114 ?v_184) P20)) (or (or ?v_127 P12) ?v_93)) (or (or ?v_105 ?v_57) P11)) (or (or ?v_132 P3) ?v_7)) (or (or P24 ?v_175) P16)) (or (or ?v_104 ?v_15) P39)) (or (or ?v_119 ?v_35) ?v_195)) (or (or P22 ?v_143) ?v_137)) (or (or ?v_1 ?v_62) ?v_122)) (or (or ?v_129 ?v_78) P3)) (or (or ?v_107 ?v_121) P19)) (or (or ?v_13 ?v_105) ?v_27)) (or (or ?v_6 ?v_121) ?v_47)) (or (or ?v_61 ?v_194) ?v_78)) (or (or ?v_10 P26) ?v_52)) (or (or ?v_21 ?v_161) P13)) (or (or ?v_133 ?v_82) ?v_128)) (or (or ?v_145 ?v_208) ?v_196)) (or (or ?v_35 ?v_27) ?v_169)) (or (or ?v_189 ?v_181) ?v_108)) (or (or P29 ?v_88) ?v_42)) (or (or ?v_142 ?v_93) ?v_92)) (or (or ?v_140 ?v_73) ?v_94)) (or (or ?v_97 ?v_184) ?v_136)) (or (or ?v_104 ?v_48) P14)) (or (or ?v_46 P15) ?v_178)) (or (or ?v_92 ?v_8) ?v_20)) (or (or ?v_200 ?v_134) ?v_59)) (or (or ?v_103 ?v_68) P16)) (or (or ?v_201 ?v_117) P33)) (or (or ?v_119 ?v_61) ?v_22)) (or (or ?v_154 ?v_69) ?v_73)) (or (or ?v_77 ?v_169) ?v_103)) (or (or ?v_114 ?v_21) ?v_22)) (or (or ?v_49 P22) P12)) (or (or P30 ?v_60) ?v_170)) (or (or P34 ?v_82) ?v_105)) (or (or ?v_173 ?v_27) ?v_115)) (or (or ?v_117 ?v_185) ?v_60)) (or (or P30 ?v_106) ?v_77)) (or (or ?v_198 ?v_138) ?v_78)) (or (or ?v_27 ?v_98) ?v_191)) (or (or ?v_1 P8) ?v_195)) (or (or ?v_87 ?v_2) P3)) (or (or P35 P10) P19)) (or (or ?v_39 P17) ?v_156)) (or (or P5 ?v_173) ?v_93)) (or (or ?v_149 ?v_128) ?v_155)) (or (or ?v_75 ?v_109) ?v_163)) (or (or ?v_183 ?v_41) P6)) (or (or ?v_35 P18) ?v_68)) (or (or P38 ?v_169) ?v_73)) (or (or ?v_194 ?v_57) P9)) (or (or ?v_118 ?v_171) ?v_117)) (or (or P3 ?v_87) ?v_154)) (or (or ?v_194 ?v_185) ?v_137)) (or (or ?v_141 ?v_35) P35)) (or (or ?v_126 ?v_19) ?v_112)) (or (or ?v_111 P9) ?v_35)) (or (or ?v_107 ?v_206) ?v_0)) (or (or P17 ?v_24) ?v_176)) (or (or ?v_121 P23) ?v_150)) (or (or ?v_151 ?v_159) ?v_75)) (or (or ?v_192 ?v_41) ?v_112)) (or (or ?v_45 ?v_138) ?v_123)) (or (or P15 ?v_78) P27)) (or (or P39 ?v_148) ?v_111)) (or (or ?v_211 ?v_31) ?v_57)) (or (or ?v_136 ?v_119) ?v_207)) (or (or ?v_97 ?v_95) ?v_7)) (or (or ?v_54 ?v_118) ?v_50)) (or (or ?v_65 ?v_197) ?v_123)) (or (or ?v_6 ?v_206) ?v_212)) (or (or ?v_192 ?v_160) ?v_153)) (or (or P24 ?v_191) ?v_198)) (or (or ?v_197 ?v_130) ?v_66)) (or (or ?v_61 ?v_172) ?v_153)) (or (or ?v_71 P28) ?v_66)) (or (or ?v_141 ?v_57) ?v_137)) (or (or ?v_103 P28) ?v_47))))))))))))))))))))))))))))))))))))))
(check-sat)
(exit)
